networks/zoo_62_744/zoo_62_744.txt
Number of groups: 31
Flow 2: {22 17} {17 48} 
Flow 7: {1 26} {26 28} {28 59} 
Flow 14: {30 5} {5 36} 
Flow 17: {25 30} {30 8} {8 39} 
Flow 18: {28 31} {31 9} {9 40} 
Flow 19: {2 26} {26 29} {29 11} {11 42} 
Flow 27: {27 20} {20 51} 
Flow 58: {3 26} {26 57} 
Flow 82: {4 26} {26 25} {25 24} {24 55} 
Flow 98: {5 30} {30 29} {29 31} {31 62} 
Flow 103: {6 30} {30 25} {25 7} {7 38} 
Flow 125: {7 25} {25 26} {26 3} {3 34} 
Flow 144: {8 30} {30 6} {6 37} 
Flow 182: {9 31} {31 29} {29 22} {22 53} 
Flow 203: {29 14} {14 45} 
Flow 210: {10 31} {31 28} {28 27} {27 21} {21 52} 
Flow 229: {11 29} {29 12} {12 43} 
Flow 255: {31 10} {10 41} 
Flow 293: {13 29} {29 26} {26 23} {23 54} 
Flow 312: {14 29} {29 16} {16 47} 
Flow 346: {15 29} {29 27} {27 58} 
Flow 359: {16 29} {29 13} {13 44} 
Flow 386: {12 28} {28 18} {18 49} 
Flow 397: {17 22} {22 29} {29 30} {30 61} 
Flow 406: {18 28} {28 12} {12 29} {29 15} {15 46} 
Flow 418: {19 28} {28 25} {25 56} 
Flow 445: {20 27} {27 29} {29 60} 
Flow 448: {21 27} {27 28} {28 26} {26 1} {1 32} 
Flow 504: {23 26} {26 4} {4 35} 
Flow 546: {24 25} {25 28} {28 19} {19 50} 
Flow 587: {26 2} {2 33} 
Time taken running everything: 6 seconds
