networks/zoo_62_744/zoo_62_744.sol
<?xml version = "1.0" encoding="UTF-8" standalone="yes"?>
<CPLEXSolution version="1.2">
 <header
   problemName="networks/zoo_62_744/zoo_62_744.lp"
   solutionName="incumbent"
   solutionIndex="-1"
   objectiveValue="31"
   solutionTypeValue="3"
   solutionTypeString="primal"
   solutionStatusValue="101"
   solutionStatusString="integer optimal solution"
   solutionMethodString="mip"
   primalFeasible="1"
   dualFeasible="1"
   MIPNodes="39"
   MIPIterations="4948"
   writeLevel="3"/>
 <quality
   epInt="1.0000000000000001e-05"
   epRHS="9.9999999999999995e-07"
   maxIntInfeas="0"
   maxPrimalInfeas="8.8817841970012523e-16"
   maxX="4.0000000000000009"
   maxSlack="10"/>
 <variables>
  <variable name="Y(2,17)" index="78" value="1"/>
  <variable name="Y(7,28)" index="399" value="1"/>
  <variable name="Y(14,5)" index="810" value="1"/>
  <variable name="Y(17,8)" index="999" value="1"/>
  <variable name="Y(18,9)" index="1062" value="1"/>
  <variable name="Y(19,11)" index="1126" value="1"/>
  <variable name="Y(27,20)" index="1631" value="1"/>
  <variable name="Y(58,26)" index="3559" value="1"/>
  <variable name="Y(82,24)" index="5045" value="1"/>
  <variable name="Y(98,31)" index="6044" value="1"/>
  <variable name="Y(103,7)" index="6330" value="1"/>
  <variable name="Y(125,3)" index="7690" value="1"/>
  <variable name="Y(144,6)" index="8871" value="1"/>
  <variable name="Y(182,22)" index="11243" value="1"/>
  <variable name="Y(203,14)" index="12537" value="1"/>
  <variable name="Y(210,21)" index="12978" value="1"/>
  <variable name="Y(229,12)" index="14147" value="1"/>
  <variable name="Y(255,10)" index="15757" value="1"/>
  <variable name="Y(293,23)" index="18126" value="1"/>
  <variable name="Y(312,16)" index="19297" value="1"/>
  <variable name="Y(346,27)" index="21416" value="1"/>
  <variable name="Y(359,13)" index="22208" value="1"/>
  <variable name="Y(386,18)" index="23887" value="1"/>
  <variable name="Y(397,30)" index="24581" value="1"/>
  <variable name="Y(406,15)" index="25124" value="1"/>
  <variable name="Y(418,25)" index="25878" value="1"/>
  <variable name="Y(445,29)" index="27556" value="1"/>
  <variable name="Y(448,1)" index="27714" value="1"/>
  <variable name="Y(504,4)" index="31189" value="1"/>
  <variable name="Y(546,19)" index="33808" value="1"/>
  <variable name="Y(587,2)" index="36333" value="1"/>
  <variable name="X(1,26,7)" index="46134" value="1"/>
  <variable name="X(1,32,448)" index="47319" value="1"/>
  <variable name="X(2,26,19)" index="47634" value="1"/>
  <variable name="X(2,33,587)" index="48946" value="1"/>
  <variable name="X(3,26,58)" index="49161" value="1"/>
  <variable name="X(3,34,125)" index="49972" value="1"/>
  <variable name="X(4,26,82)" index="50673" value="1"/>
  <variable name="X(4,35,504)" index="51839" value="1"/>
  <variable name="X(5,30,98)" index="52177" value="1"/>
  <variable name="X(5,36,14)" index="52837" value="1"/>
  <variable name="X(6,30,103)" index="53670" value="1"/>
  <variable name="X(6,37,144)" index="54455" value="1"/>
  <variable name="X(7,25,125)" index="55180" value="1"/>
  <variable name="X(7,38,103)" index="55902" value="1"/>
  <variable name="X(8,30,144)" index="56687" value="1"/>
  <variable name="X(8,39,17)" index="57304" value="1"/>
  <variable name="X(9,31,182)" index="58213" value="1"/>
  <variable name="X(9,40,18)" index="58793" value="1"/>
  <variable name="X(10,31,210)" index="59729" value="1"/>
  <variable name="X(10,41,255)" index="60518" value="1"/>
  <variable name="X(11,29,229)" index="61236" value="1"/>
  <variable name="X(11,42,19)" index="61770" value="1"/>
  <variable name="X(12,28,386)" index="62881" value="1"/>
  <variable name="X(12,29,406)" index="63645" value="1"/>
  <variable name="X(12,43,229)" index="64212" value="1"/>
  <variable name="X(13,29,293)" index="65020" value="1"/>
  <variable name="X(13,44,359)" index="65830" value="1"/>
  <variable name="X(14,29,312)" index="66527" value="1"/>
  <variable name="X(14,45,203)" index="67162" value="1"/>
  <variable name="X(15,29,346)" index="68049" value="1"/>
  <variable name="X(15,46,406)" index="68853" value="1"/>
  <variable name="X(16,29,359)" index="69550" value="1"/>
  <variable name="X(16,47,312)" index="70247" value="1"/>
  <variable name="X(17,22,397)" index="71076" value="1"/>
  <variable name="X(17,48,2)" index="71425" value="1"/>
  <variable name="X(18,28,406)" index="72573" value="1"/>
  <variable name="X(18,49,386)" index="73297" value="1"/>
  <variable name="X(19,28,418)" index="74073" value="1"/>
  <variable name="X(19,50,546)" index="74945" value="1"/>
  <variable name="X(20,27,445)" index="75588" value="1"/>
  <variable name="X(20,51,27)" index="75914" value="1"/>
  <variable name="X(21,27,448)" index="77079" value="1"/>
  <variable name="X(21,52,210)" index="77585" value="1"/>
  <variable name="X(22,17,2)" index="78121" value="1"/>
  <variable name="X(22,29,397)" index="79260" value="1"/>
  <variable name="X(22,53,182)" index="79789" value="1"/>
  <variable name="X(23,26,504)" index="80855" value="1"/>
  <variable name="X(23,54,293)" index="81388" value="1"/>
  <variable name="X(24,25,546)" index="82385" value="1"/>
  <variable name="X(24,55,82)" index="82665" value="1"/>
  <variable name="X(25,7,103)" index="83430" value="1"/>
  <variable name="X(25,24,82)" index="84153" value="1"/>
  <variable name="X(25,26,125)" index="84940" value="1"/>
  <variable name="X(25,28,546)" index="86105" value="1"/>
  <variable name="X(25,30,17)" index="86320" value="1"/>
  <variable name="X(25,56,418)" index="87465" value="1"/>
  <variable name="X(26,1,448)" index="88239" value="1"/>
  <variable name="X(26,2,587)" index="89122" value="1"/>
  <variable name="X(26,3,125)" index="89404" value="1"/>
  <variable name="X(26,4,504)" index="90527" value="1"/>
  <variable name="X(26,23,293)" index="91060" value="1"/>
  <variable name="X(26,25,82)" index="91593" value="1"/>
  <variable name="X(26,28,7)" index="92262" value="1"/>
  <variable name="X(26,29,19)" index="93018" value="1"/>
  <variable name="X(26,57,58)" index="93801" value="1"/>
  <variable name="X(27,20,27)" index="94514" value="1"/>
  <variable name="X(27,21,210)" index="95441" value="1"/>
  <variable name="X(27,28,448)" index="96423" value="1"/>
  <variable name="X(27,29,445)" index="97164" value="1"/>
  <variable name="X(27,58,346)" index="97809" value="1"/>
  <variable name="X(28,12,406)" index="98613" value="1"/>
  <variable name="X(28,18,386)" index="99337" value="1"/>
  <variable name="X(28,19,546)" index="100241" value="1"/>
  <variable name="X(28,25,418)" index="100857" value="1"/>
  <variable name="X(28,26,448)" index="101631" value="1"/>
  <variable name="X(28,27,210)" index="102137" value="1"/>
  <variable name="X(28,31,18)" index="102689" value="1"/>
  <variable name="X(28,59,7)" index="103422" value="1"/>
  <variable name="X(29,11,19)" index="104178" value="1"/>
  <variable name="X(29,12,229)" index="105132" value="1"/>
  <variable name="X(29,13,359)" index="106006" value="1"/>
  <variable name="X(29,14,203)" index="106594" value="1"/>
  <variable name="X(29,15,406)" index="107541" value="1"/>
  <variable name="X(29,16,312)" index="108191" value="1"/>
  <variable name="X(29,22,182)" index="108805" value="1"/>
  <variable name="X(29,26,293)" index="109660" value="1"/>
  <variable name="X(29,27,346)" index="110457" value="1"/>
  <variable name="X(29,30,397)" index="111252" value="1"/>
  <variable name="X(29,31,98)" index="111697" value="1"/>
  <variable name="X(29,60,445)" index="112788" value="1"/>
  <variable name="X(30,5,14)" index="113101" value="1"/>
  <variable name="X(30,6,144)" index="113975" value="1"/>
  <variable name="X(30,8,17)" index="114592" value="1"/>
  <variable name="X(30,25,103)" index="115422" value="1"/>
  <variable name="X(30,29,98)" index="116161" value="1"/>
  <variable name="X(30,61,397)" index="117204" value="1"/>
  <variable name="X(31,9,18)" index="117569" value="1"/>
  <variable name="X(31,10,255)" index="118550" value="1"/>
  <variable name="X(31,28,210)" index="119249" value="1"/>
  <variable name="X(31,29,182)" index="119965" value="1"/>
  <variable name="X(31,62,98)" index="120625" value="1"/>
  <variable name="C(2,17)" index="121280" value="1"/>
  <variable name="C(7,26)" index="121295" value="1"/>
  <variable name="C(7,28)" index="121296" value="2"/>
  <variable name="C(14,5)" index="121321" value="1"/>
  <variable name="C(17,30)" index="121334" value="1"/>
  <variable name="C(17,8)" index="121335" value="2"/>
  <variable name="C(18,31)" index="121339" value="1"/>
  <variable name="C(18,9)" index="121340" value="2"/>
  <variable name="C(19,26)" index="121342" value="1"/>
  <variable name="C(19,29)" index="121343" value="2"/>
  <variable name="C(19,11)" index="121344" value="3"/>
  <variable name="C(27,20)" index="121378" value="1"/>
  <variable name="C(58,26)" index="121496" value="1"/>
  <variable name="C(82,4)" index="121590" value="1"/>
  <variable name="C(82,26)" index="121591" value="2"/>
  <variable name="C(82,25)" index="121592" value="3"/>
  <variable name="C(82,24)" index="121593" value="4"/>
  <variable name="C(98,30)" index="121646" value="1"/>
  <variable name="C(98,29)" index="121647" value="2"/>
  <variable name="C(98,31)" index="121648" value="3"/>
  <variable name="C(103,30)" index="121668" value="1"/>
  <variable name="C(103,25)" index="121669" value="2"/>
  <variable name="C(103,7)" index="121670" value="3"/>
  <variable name="C(125,25)" index="121757" value="1"/>
  <variable name="C(125,26)" index="121758" value="2"/>
  <variable name="C(125,3)" index="121759" value="3"/>
  <variable name="C(144,30)" index="121836" value="1"/>
  <variable name="C(144,6)" index="121837" value="2"/>
  <variable name="C(182,31)" index="121998" value="1"/>
  <variable name="C(182,29)" index="121999" value="2"/>
  <variable name="C(182,22)" index="122000" value="3"/>
  <variable name="C(203,14)" index="122088" value="1"/>
  <variable name="C(210,31)" index="122116" value="1"/>
  <variable name="C(210,28)" index="122117" value="2"/>
  <variable name="C(210,27)" index="122118" value="3.0000000000000009"/>
  <variable name="C(210,21)" index="122119" value="4.0000000000000009"/>
  <variable name="C(229,29)" index="122192" value="1"/>
  <variable name="C(229,12)" index="122193" value="2"/>
  <variable name="C(255,10)" index="122290" value="1"/>
  <variable name="C(293,29)" index="122421" value="1"/>
  <variable name="C(293,26)" index="122422" value="2"/>
  <variable name="C(293,23)" index="122423" value="3"/>
  <variable name="C(312,29)" index="122489" value="1"/>
  <variable name="C(312,16)" index="122490" value="2"/>
  <variable name="C(346,29)" index="122617" value="1"/>
  <variable name="C(346,27)" index="122618" value="2"/>
  <variable name="C(359,29)" index="122663" value="1"/>
  <variable name="C(359,13)" index="122664" value="2"/>
  <variable name="C(386,28)" index="122776" value="1"/>
  <variable name="C(386,18)" index="122777" value="2"/>
  <variable name="C(397,22)" index="122824" value="1"/>
  <variable name="C(397,29)" index="122825" value="2"/>
  <variable name="C(397,30)" index="122826" value="3"/>
  <variable name="C(406,28)" index="122863" value="1"/>
  <variable name="C(406,12)" index="122864" value="2"/>
  <variable name="C(406,29)" index="122865" value="3"/>
  <variable name="C(406,15)" index="122866" value="4"/>
  <variable name="C(418,28)" index="122910" value="1"/>
  <variable name="C(418,25)" index="122911" value="2"/>
  <variable name="C(445,27)" index="123024" value="1"/>
  <variable name="C(445,29)" index="123025" value="2"/>
  <variable name="C(448,27)" index="123035" value="1"/>
  <variable name="C(448,28)" index="123036" value="2"/>
  <variable name="C(448,26)" index="123037" value="3"/>
  <variable name="C(448,1)" index="123038" value="4"/>
  <variable name="C(504,26)" index="123254" value="1"/>
  <variable name="C(504,4)" index="123255" value="2"/>
  <variable name="C(546,25)" index="123430" value="1"/>
  <variable name="C(546,28)" index="123431" value="2"/>
  <variable name="C(546,19)" index="123432" value="3"/>
  <variable name="C(587,2)" index="123568" value="1"/>
 </variables>
</CPLEXSolution>
